sat
(model
(define-fun |required(ezcsp__leq(nWeight(4),ezcsp__mn(ezcsp__pl(67,24),24)))| () Bool false)
(define-fun |label_order(nWeight(1),1)| () Bool true)
(define-fun |leaf(8)| () Bool true)
(define-fun |required(ezcsp__eq(nWeight(1),140))| () Bool false)
(define-fun |required(ezcsp__leq(nWeight(6),ezcsp__mn(ezcsp__pl(12,4),4)))| () Bool false)
(define-fun |leafPos(3,3)| () Bool false)
(define-fun |required(ezcsp__eq(nWeight(1),95))| () Bool true)
(define-fun |required(ezcsp__eq(nWeight(2),ezcsp__pl(nWeight(1),49)))| () Bool false)
(define-fun |posColor(4,green)| () Bool false)
(define-fun |label_order(nWeight(5),1)| () Bool true)
(define-fun |leafPos(1,2)| () Bool false)
(define-fun |required(ezcsp__eq(nWeight(3),ezcsp__pl(nWeight(2),73)))| () Bool false)
(define-fun |leafCost(4,24)| () Bool true)
(define-fun |required(ezcsp__eq(nWeight(1),29))| () Bool false)
(define-fun |required(ezcsp__eq(nWeight(1),70))| () Bool false)
(define-fun |required(ezcsp__leq(nWeight(6),ezcsp__mn(ezcsp__pl(67,24),24)))| () Bool false)
(define-fun |required(ezcsp__eq(nWeight(1),37))| () Bool false)
(define-fun |posColor(3,green)| () Bool false)
(define-fun |location(4)| () Bool true)
(define-fun |cspvar(nWeight(3),0,486)| () Bool true)
(define-fun |posColor(3,blue)| () Bool true)
(define-fun |required(ezcsp__eq(nWeight(1),127))| () Bool false)
(define-fun |leafPos(1,7)| () Bool false)
(define-fun |required(ezcsp__eq(nWeight(1),102))| () Bool false)
(define-fun |cspvar(nWeight(2),0,486)| () Bool true)
(define-fun |posColor(1,red)| () Bool false)
(define-fun |required(ezcsp__eq(nWeight(6),99))| () Bool false)
(define-fun |required(ezcsp__gt(nWeight(4),ezcsp__mn(ezcsp__pl(94,17),17)))| () Bool false)
(define-fun |required(ezcsp__eq(nWeight(7),ezcsp__pl(nWeight(6),33)))| () Bool false)
(define-fun |posColor(3,red)| () Bool false)
(define-fun |required(ezcsp__eq(nWeight(4),91))| () Bool false)
(define-fun |posColor(7,green)| () Bool true)
(define-fun |required(ezcsp__eq(nWeight(7),144))| () Bool false)
(define-fun |required(ezcsp__eq(nWeight(1),143))| () Bool false)
(define-fun |leafPos(5,7)| () Bool false)
(define-fun |required(ezcsp__eq(nWeight(6),ezcsp__pl(nWeight(5),49)))| () Bool false)
(define-fun |required(ezcsp__eq(nWeight(1),96))| () Bool false)
(define-fun |leafPos(5,0)| () Bool false)
(define-fun |leafPos(6,3)| () Bool false)
(define-fun |leafPos(8,6)| () Bool false)
(define-fun |required(ezcsp__eq(nWeight(2),95))| () Bool false)
(define-fun |required(ezcsp__eq(nWeight(2),ezcsp__pl(nWeight(1),4)))| () Bool false)
(define-fun 449 () Bool false)
(define-fun 448 () Bool false)
(define-fun 443 () Bool false)
(define-fun 442 () Bool false)
(define-fun 441 () Bool false)
(define-fun 440 () Bool false)
(define-fun 447 () Bool false)
(define-fun 446 () Bool true)
(define-fun 445 () Bool false)
(define-fun |required(ezcsp__leq(nWeight(5),ezcsp__mn(ezcsp__pl(94,17),17)))| () Bool false)
(define-fun |leafPos(2,7)| () Bool false)
(define-fun 108 () Bool true)
(define-fun 109 () Bool true)
(define-fun |required(ezcsp__eq(nWeight(5),146))| () Bool false)
(define-fun |required(ezcsp__eq(nWeight(1),50))| () Bool false)
(define-fun |required(ezcsp__eq(nWeight(4),ezcsp__pl(nWeight(3),46)))| () Bool false)
(define-fun |required(ezcsp__eq(nWeight(6),91))| () Bool false)
(define-fun |leafPos(6,4)| () Bool false)
(define-fun |required(ezcsp__eq(nWeight(4),95))| () Bool false)
(define-fun |required(ezcsp__eq(nWeight(4),ezcsp__pl(nWeight(3),49)))| () Bool false)
(define-fun |required(ezcsp__eq(nWeight(2),ezcsp__pl(nWeight(1),33)))| () Bool false)
(define-fun |leafPos(4,5)| () Bool false)
(define-fun 438 () Bool false)
(define-fun 439 () Bool false)
(define-fun 436 () Bool false)
(define-fun 437 () Bool false)
(define-fun |required(ezcsp__eq(nWeight(3),111))| () Bool false)
(define-fun 435 () Bool false)
(define-fun 432 () Bool false)
(define-fun 433 () Bool false)
(define-fun |required(ezcsp__eq(nWeight(2),83))| () Bool false)
(define-fun 431 () Bool false)
(define-fun |required(ezcsp__eq(nWeight(3),144))| () Bool false)
(define-fun |innerNode(7)| () Bool true)
(define-fun |leafPos(2,0)| () Bool false)
(define-fun |required(ezcsp__gt(nWeight(2),ezcsp__mn(ezcsp__pl(46,98),46)))| () Bool false)
(define-fun |innerNode(1)| () Bool true)
(define-fun |required(ezcsp__eq(nWeight(1),57))| () Bool false)
(define-fun |required(ezcsp__leq(nWeight(5),ezcsp__mn(ezcsp__pl(50,49),49)))| () Bool false)
(define-fun |posColor(6,green)| () Bool true)
(define-fun |required(ezcsp__eq(nWeight(4),99))| () Bool false)
(define-fun |required(ezcsp__leq(nWeight(4),ezcsp__mn(ezcsp__pl(33,62),33)))| () Bool false)
(define-fun |leaf(3)| () Bool true)
(define-fun |required(ezcsp__eq(nWeight(5),ezcsp__pl(nWeight(4),49)))| () Bool false)
(define-fun |required(ezcsp__eq(nWeight(5),ezcsp__pl(nWeight(4),17)))| () Bool false)
(define-fun |posColor(6,red)| () Bool false)
(define-fun |color(red)| () Bool true)
(define-fun |required(ezcsp__gt(nWeight(5),ezcsp__mn(ezcsp__pl(46,98),46)))| () Bool false)
(define-fun 99 () Bool true)
(define-fun 98 () Bool true)
(define-fun |required(ezcsp__eq(nWeight(1),36))| () Bool false)
(define-fun |required(ezcsp__eq(nWeight(5),16))| () Bool false)
(define-fun |leafWeightCardinality(2,46,98)| () Bool true)
(define-fun |required(ezcsp__eq(nWeight(7),91))| () Bool false)
(define-fun |required(ezcsp__eq(nWeight(7),ezcsp__pl(nWeight(6),4)))| () Bool false)
(define-fun |leafPos(3,7)| () Bool false)
(define-fun |leafWeightCardinality(7,94,17)| () Bool true)
(define-fun |required(ezcsp__leq(nWeight(3),ezcsp__mn(ezcsp__pl(94,17),17)))| () Bool false)
(define-fun |posColor(7,blue)| () Bool false)
(define-fun |required(ezcsp__eq(nWeight(5),ezcsp__pl(nWeight(4),4)))| () Bool false)
(define-fun |required(ezcsp__eq(nWeight(1),100))| () Bool false)
(define-fun |required(ezcsp__gt(nWeight(5),ezcsp__mn(ezcsp__pl(67,24),24)))| () Bool false)
(define-fun |required(ezcsp__leq(nWeight(6),ezcsp__mn(ezcsp__pl(53,30),30)))| () Bool false)
(define-fun |required(ezcsp__eq(nWeight(5),ezcsp__pl(nWeight(4),33)))| () Bool false)
(define-fun |required(ezcsp__eq(nWeight(1),92))| () Bool false)
(define-fun 146 () Bool true)
(define-fun 147 () Bool true)
(define-fun |required(ezcsp__leq(nWeight(4),ezcsp__mn(ezcsp__pl(53,30),30)))| () Bool false)
(define-fun |required(ezcsp__eq(nWeight(1),99))| () Bool false)
(define-fun |location(0)| () Bool true)
(define-fun |leafPos(5,3)| () Bool false)
(define-fun |leafCost(8,49)| () Bool true)
(define-fun |leafPos(6,0)| () Bool false)
(define-fun |leafWeightCardinality(4,67,24)| () Bool true)
(define-fun |required(ezcsp__eq(nWeight(1),16))| () Bool false)
(define-fun |required(ezcsp__eq(nWeight(4),ezcsp__pl(nWeight(3),73)))| () Bool false)
(define-fun |required(ezcsp__eq(nWeight(7),99))| () Bool true)
(define-fun |leafPos(4,1)| () Bool false)
(define-fun |posColor(1,green)| () Bool true)
(define-fun |required(ezcsp__leq(nWeight(2),ezcsp__mn(ezcsp__pl(46,98),46)))| () Bool false)
(define-fun |leafPos(7,6)| () Bool false)
(define-fun |required(ezcsp__eq(nWeight(1),144))| () Bool false)
(define-fun |innerNode(3)| () Bool true)
(define-fun |leafPos(2,4)| () Bool false)
(define-fun |coloredPos(2)| () Bool true)
(define-fun |required(ezcsp__eq(nWeight(1),91))| () Bool false)
(define-fun 139 () Bool true)
(define-fun 138 () Bool true)
(define-fun 490 () Bool false)
(define-fun |required(ezcsp__gt(nWeight(6),ezcsp__mn(ezcsp__pl(50,49),49)))| () Bool true)
(define-fun |leaf(7)| () Bool true)
(define-fun |required(ezcsp__gt(nWeight(6),ezcsp__mn(ezcsp__pl(67,24),24)))| () Bool false)
(define-fun |leafPos(4,6)| () Bool false)
(define-fun |leafPos(7,2)| () Bool false)
(define-fun |required(ezcsp__leq(nWeight(5),ezcsp__mn(ezcsp__pl(53,30),30)))| () Bool false)
(define-fun |required(ezcsp__eq(nWeight(1),74))| () Bool false)
(define-fun |posColor(2,green)| () Bool true)
(define-fun |required(ezcsp__eq(nWeight(2),111))| () Bool false)
(define-fun |required(ezcsp__sum(list(nWeight,1),ezcsp__leq,486))| () Bool true)
(define-fun |required(ezcsp__eq(nWeight(7),83))| () Bool false)
(define-fun |posColor(5,green)| () Bool false)
(define-fun |required(ezcsp__gt(nWeight(4),ezcsp__mn(ezcsp__pl(67,24),24)))| () Bool false)
(define-fun 456 () Bool false)
(define-fun |required(ezcsp__eq(nWeight(1),77))| () Bool false)
(define-fun |required(ezcsp__eq(nWeight(4),146))| () Bool false)
(define-fun |required(ezcsp__eq(nWeight(3),ezcsp__pl(nWeight(2),46)))| () Bool false)
(define-fun |required(ezcsp__leq(nWeight(2),ezcsp__mn(ezcsp__pl(50,49),49)))| () Bool false)
(define-fun |posColor(7,red)| () Bool false)
(define-fun |required(ezcsp__leq(nWeight(2),ezcsp__mn(ezcsp__pl(33,62),33)))| () Bool false)
(define-fun |required(ezcsp__eq(nWeight(2),146))| () Bool false)
(define-fun |innerNode(4)| () Bool true)
(define-fun |required(ezcsp__eq(nWeight(4),ezcsp__pl(nWeight(3),17)))| () Bool false)
(define-fun |required(ezcsp__leq(nWeight(2),ezcsp__mn(ezcsp__pl(67,24),24)))| () Bool false)
(define-fun 88 () Bool true)
(define-fun 89 () Bool true)
(define-fun |required(ezcsp__gt(nWeight(4),ezcsp__mn(ezcsp__pl(46,98),46)))| () Bool false)
(define-fun |required(ezcsp__eq(nWeight(3),83))| () Bool false)
(define-fun |location(7)| () Bool true)
(define-fun |cspvar(nWeight(5),0,486)| () Bool true)
(define-fun |leafPos(1,6)| () Bool false)
(define-fun |leafPos(3,2)| () Bool false)
(define-fun |required(ezcsp__eq(nWeight(1),113))| () Bool false)
(define-fun 171 () Bool true)
(define-fun |required(ezcsp__eq(nWeight(4),ezcsp__pl(nWeight(3),24)))| () Bool true)
(define-fun |required(ezcsp__gt(nWeight(4),ezcsp__mn(ezcsp__pl(33,62),33)))| () Bool false)
(define-fun |label_order(nWeight(7),1)| () Bool true)
(define-fun |required(ezcsp__eq(nWeight(1),98))| () Bool false)
(define-fun |required(ezcsp__eq(nWeight(1),54))| () Bool false)
(define-fun |required(ezcsp__gt(nWeight(1),ezcsp__mn(ezcsp__pl(33,62),33)))| () Bool false)
(define-fun |required(ezcsp__eq(nWeight(1),118))| () Bool false)
(define-fun |leafPos(5,6)| () Bool false)
(define-fun |required(ezcsp__eq(nWeight(3),16))| () Bool false)
(define-fun |leafCost(3,33)| () Bool true)
(define-fun |required(ezcsp__gt(nWeight(1),ezcsp__mn(ezcsp__pl(53,30),30)))| () Bool false)
(define-fun |required(ezcsp__gt(nWeight(6),ezcsp__mn(ezcsp__pl(12,4),4)))| () Bool false)
(define-fun |required(ezcsp__leq(nWeight(6),ezcsp__mn(ezcsp__pl(46,98),46)))| () Bool false)
(define-fun |required(ezcsp__eq(nWeight(1),86))| () Bool false)
(define-fun |leafPos(8,7)| () Bool true)
(define-fun 458 () Bool false)
(define-fun 459 () Bool false)
(define-fun |required(ezcsp__gt(nWeight(3),ezcsp__mn(ezcsp__pl(73,73),73)))| () Bool false)
(define-fun 450 () Bool false)
(define-fun 451 () Bool false)
(define-fun 452 () Bool false)
(define-fun 453 () Bool false)
(define-fun 454 () Bool false)
(define-fun 455 () Bool false)
(define-fun 444 () Bool false)
(define-fun 457 () Bool false)
(define-fun |cspvar(nWeight(1),0,486)| () Bool true)
(define-fun |required(ezcsp__eq(nWeight(2),16))| () Bool true)
(define-fun |required(ezcsp__eq(nWeight(7),ezcsp__pl(nWeight(6),73)))| () Bool false)
(define-fun 172 () Bool true)
(define-fun |required(ezcsp__eq(nWeight(1),71))| () Bool false)
(define-fun |required(ezcsp__eq(nWeight(1),146))| () Bool false)
(define-fun |leafPos(6,5)| () Bool false)
(define-fun |required(ezcsp__eq(nWeight(1),90))| () Bool false)
(define-fun |leafPos(4,2)| () Bool false)
(define-fun |required(ezcsp__eq(nWeight(1),97))| () Bool false)
(define-fun |leafCost(1,73)| () Bool true)
(define-fun |coloredPos(7)| () Bool true)
(define-fun |leafPos(2,1)| () Bool false)
(define-fun |required(ezcsp__leq(nWeight(1),ezcsp__mn(ezcsp__pl(50,49),49)))| () Bool false)
(define-fun |required(ezcsp__eq(nWeight(1),76))| () Bool false)
(define-fun |required(ezcsp__gt(nWeight(2),ezcsp__mn(ezcsp__pl(94,17),17)))| () Bool false)
(define-fun |required(ezcsp__leq(nWeight(2),ezcsp__mn(ezcsp__pl(53,30),30)))| () Bool false)
(define-fun |required(ezcsp__gt(nWeight(1),ezcsp__mn(ezcsp__pl(50,49),49)))| () Bool false)
(define-fun |required(ezcsp__eq(nWeight(6),ezcsp__pl(nWeight(5),4)))| () Bool false)
(define-fun |leaf(4)| () Bool true)
(define-fun |required(ezcsp__gt(nWeight(2),ezcsp__mn(ezcsp__pl(67,24),24)))| () Bool false)
(define-fun |required(ezcsp__eq(nWeight(4),16))| () Bool false)
(define-fun |leafPos(7,5)| () Bool false)
(define-fun |required(ezcsp__gt(nWeight(5),ezcsp__mn(ezcsp__pl(94,17),17)))| () Bool false)
(define-fun |required(ezcsp__leq(nWeight(6),ezcsp__mn(ezcsp__pl(33,62),33)))| () Bool false)
(define-fun |required(ezcsp__eq(nWeight(7),ezcsp__pl(nWeight(6),17)))| () Bool false)
(define-fun |required(ezcsp__gt(nWeight(3),ezcsp__mn(ezcsp__pl(94,17),17)))| () Bool false)
(define-fun |leafPos(1,1)| () Bool false)
(define-fun |leafWeightCardinality(1,73,73)| () Bool true)
(define-fun |leafPos(3,1)| () Bool true)
(define-fun |required(ezcsp__leq(nWeight(5),ezcsp__mn(ezcsp__pl(33,62),33)))| () Bool false)
(define-fun |required(ezcsp__gt(nWeight(1),ezcsp__mn(ezcsp__pl(46,98),46)))| () Bool false)
(define-fun |leafWeightCardinality(6,53,30)| () Bool true)
(define-fun |leafPos(3,6)| () Bool false)
(define-fun |required(ezcsp__leq(nWeight(1),ezcsp__mn(ezcsp__pl(67,24),24)))| () Bool false)
(define-fun |required(ezcsp__eq(nWeight(1),79))| () Bool false)
(define-fun |cspvar(nWeight(6),0,486)| () Bool true)
(define-fun |required(ezcsp__leq(nWeight(3),ezcsp__mn(ezcsp__pl(67,24),24)))| () Bool true)
(define-fun |leafPos(8,3)| () Bool false)
(define-fun |required(ezcsp__eq(nWeight(4),83))| () Bool false)
(define-fun |required(ezcsp__eq(nWeight(2),91))| () Bool false)
(define-fun |required(ezcsp__eq(nWeight(1),119))| () Bool false)
(define-fun |required(ezcsp__gt(nWeight(3),ezcsp__mn(ezcsp__pl(46,98),46)))| () Bool false)
(define-fun |required(ezcsp__leq(nWeight(1),ezcsp__mn(ezcsp__pl(33,62),33)))| () Bool false)
(define-fun |required(ezcsp__eq(nWeight(2),99))| () Bool false)
(define-fun |leafCost(7,17)| () Bool true)
(define-fun 79 () Bool true)
(define-fun 78 () Bool true)
(define-fun |required(ezcsp__eq(nWeight(1),82))| () Bool false)
(define-fun |required(ezcsp__gt(nWeight(3),ezcsp__mn(ezcsp__pl(53,30),30)))| () Bool false)
(define-fun |required(ezcsp__leq(nWeight(3),ezcsp__mn(ezcsp__pl(33,62),33)))| () Bool false)
(define-fun |location(3)| () Bool true)
(define-fun |required(ezcsp__eq(nWeight(5),ezcsp__pl(nWeight(4),24)))| () Bool false)
(define-fun |required(ezcsp__gt(nWeight(4),ezcsp__mn(ezcsp__pl(50,49),49)))| () Bool false)
(define-fun |required(ezcsp__gt(nWeight(3),ezcsp__mn(ezcsp__pl(12,4),4)))| () Bool false)
(define-fun |posColor(5,blue)| () Bool false)
(define-fun |required(ezcsp__eq(nWeight(7),16))| () Bool false)
(define-fun |required(ezcsp__gt(nWeight(4),ezcsp__mn(ezcsp__pl(73,73),73)))| () Bool false)
(define-fun |required(ezcsp__eq(nWeight(1),63))| () Bool false)
(define-fun |posColor(2,blue)| () Bool false)
(define-fun |required(ezcsp__gt(nWeight(2),ezcsp__mn(ezcsp__pl(73,73),73)))| () Bool false)
(define-fun |leafPos(5,2)| () Bool true)
(define-fun |required(ezcsp__gt(nWeight(4),ezcsp__mn(ezcsp__pl(12,4),4)))| () Bool false)
(define-fun |required(ezcsp__gt(nWeight(1),ezcsp__mn(ezcsp__pl(12,4),4)))| () Bool true)
(define-fun |required(ezcsp__eq(nWeight(1),111))| () Bool false)
(define-fun |leafPos(6,1)| () Bool false)
(define-fun |required(ezcsp__gt(nWeight(2),ezcsp__mn(ezcsp__pl(12,4),4)))| () Bool false)
(define-fun |required(ezcsp__eq(nWeight(2),ezcsp__pl(nWeight(1),24)))| () Bool false)
(define-fun |leafPos(8,0)| () Bool false)
(define-fun |required(ezcsp__eq(nWeight(1),116))| () Bool false)
(define-fun |required(ezcsp__eq(nWeight(4),ezcsp__pl(nWeight(3),4)))| () Bool false)
(define-fun |required(ezcsp__eq(nWeight(5),ezcsp__pl(nWeight(4),73)))| () Bool false)
(define-fun |leafPos(7,1)| () Bool false)
(define-fun |coloredPos(3)| () Bool true)
(define-fun |leafPos(2,5)| () Bool true)
(define-fun |required(ezcsp__eq(nWeight(5),111))| () Bool false)
(define-fun |leaf(1)| () Bool true)
(define-fun 128 () Bool true)
(define-fun 129 () Bool true)
(define-fun 69 () Bool false)
(define-fun |required(ezcsp__eq(nWeight(5),91))| () Bool false)
(define-fun |required(ezcsp__leq(nWeight(1),ezcsp__mn(ezcsp__pl(94,17),17)))| () Bool false)
(define-fun |required(ezcsp__eq(nWeight(1),84))| () Bool false)
(define-fun |label_order(nWeight(4),1)| () Bool true)
(define-fun |leafPos(4,7)| () Bool false)
(define-fun |required(ezcsp__eq(nWeight(6),144))| () Bool false)
(define-fun |required(ezcsp__leq(nWeight(2),ezcsp__mn(ezcsp__pl(94,17),17)))| () Bool true)
(define-fun |color(blue)| () Bool true)
(define-fun |label_order(nWeight(6),1)| () Bool true)
(define-fun |required(ezcsp__eq(nWeight(1),45))| () Bool false)
(define-fun |required(ezcsp__leq(nWeight(3),ezcsp__mn(ezcsp__pl(53,30),30)))| () Bool false)
(define-fun |label_order(nWeight(2),1)| () Bool true)
(define-fun |required(ezcsp__gt(nWeight(5),ezcsp__mn(ezcsp__pl(73,73),73)))| () Bool false)
(define-fun |posColor(5,red)| () Bool true)
(define-fun |leafCost(2,46)| () Bool true)
(define-fun |coloredPos(4)| () Bool true)
(define-fun |innerNode(5)| () Bool true)
(define-fun |required(ezcsp__eq(nWeight(6),16))| () Bool false)
(define-fun |required(ezcsp__eq(nWeight(1),61))| () Bool false)
(define-fun |color(green)| () Bool true)
(define-fun |leafPos(7,3)| () Bool true)
(define-fun |leafPos(3,5)| () Bool false)
(define-fun |required(ezcsp__eq(nWeight(1),83))| () Bool false)
(define-fun |leafPos(1,5)| () Bool false)
(define-fun |required(ezcsp__eq(nWeight(1),66))| () Bool false)
(define-fun |required(ezcsp__gt(nWeight(5),ezcsp__mn(ezcsp__pl(50,49),49)))| () Bool false)
(define-fun |num(8)| () Bool true)
(define-fun |required(ezcsp__gt(nWeight(2),ezcsp__mn(ezcsp__pl(33,62),33)))| () Bool false)
(define-fun |leafPos(8,4)| () Bool false)
(define-fun |required(ezcsp__leq(nWeight(1),ezcsp__mn(ezcsp__pl(53,30),30)))| () Bool false)
(define-fun |required(ezcsp__eq(nWeight(7),ezcsp__pl(nWeight(6),49)))| () Bool false)
(define-fun 67 () Bool true)
(define-fun 68 () Bool true)
(define-fun |required(ezcsp__leq(nWeight(3),ezcsp__mn(ezcsp__pl(50,49),49)))| () Bool false)
(define-fun |leafPos(5,5)| () Bool false)
(define-fun |required(ezcsp__gt(nWeight(1),ezcsp__mn(ezcsp__pl(94,17),17)))| () Bool false)
(define-fun |location(6)| () Bool true)
(define-fun |required(ezcsp__gt(nWeight(2),ezcsp__mn(ezcsp__pl(50,49),49)))| () Bool false)
(define-fun |required(ezcsp__leq(nWeight(6),ezcsp__mn(ezcsp__pl(94,17),17)))| () Bool false)
(define-fun |required(ezcsp__eq(nWeight(7),111))| () Bool false)
(define-fun |required(ezcsp__eq(nWeight(3),ezcsp__pl(nWeight(2),49)))| () Bool false)
(define-fun |required(ezcsp__leq(nWeight(6),ezcsp__mn(ezcsp__pl(73,73),73)))| () Bool false)
(define-fun |required(ezcsp__gt(nWeight(6),ezcsp__mn(ezcsp__pl(94,17),17)))| () Bool false)
(define-fun |required(ezcsp__eq(nWeight(3),ezcsp__pl(nWeight(2),17)))| () Bool true)
(define-fun |required(ezcsp__leq(nWeight(5),ezcsp__mn(ezcsp__pl(46,98),46)))| () Bool false)
(define-fun |required(ezcsp__eq(nWeight(7),ezcsp__pl(nWeight(6),30)))| () Bool false)
(define-fun 469 () Bool false)
(define-fun 468 () Bool false)
(define-fun 465 () Bool false)
(define-fun 464 () Bool false)
(define-fun 467 () Bool true)
(define-fun 466 () Bool false)
(define-fun 461 () Bool false)
(define-fun 460 () Bool false)
(define-fun 463 () Bool false)
(define-fun 462 () Bool false)
(define-fun |required(ezcsp__leq(nWeight(4),ezcsp__mn(ezcsp__pl(50,49),49)))| () Bool false)
(define-fun |required(ezcsp__eq(nWeight(2),ezcsp__pl(nWeight(1),30)))| () Bool false)
(define-fun 166 () Bool true)
(define-fun 167 () Bool true)
(define-fun 161 () Bool true)
(define-fun 162 () Bool true)
(define-fun |leafPos(6,6)| () Bool true)
(define-fun |required(ezcsp__eq(nWeight(2),ezcsp__pl(nWeight(1),17)))| () Bool false)
(define-fun |required(ezcsp__eq(nWeight(1),167))| () Bool false)
(define-fun |required(ezcsp__eq(nWeight(1),85))| () Bool false)
(define-fun |leafPos(4,3)| () Bool false)
(define-fun |required(ezcsp__eq(nWeight(1),126))| () Bool false)
(define-fun |leafPos(2,2)| () Bool false)
(define-fun |required(ezcsp__gt(nWeight(3),ezcsp__mn(ezcsp__pl(50,49),49)))| () Bool false)
(define-fun |required(ezcsp__eq(nWeight(3),ezcsp__pl(nWeight(2),4)))| () Bool false)
(define-fun |required(ezcsp__eq(nWeight(2),144))| () Bool false)
(define-fun |required(ezcsp__eq(nWeight(6),146))| () Bool false)
(define-fun |required(ezcsp__eq(nWeight(3),ezcsp__pl(nWeight(2),33)))| () Bool false)
(define-fun |leaf(5)| () Bool true)
(define-fun |required(ezcsp__eq(nWeight(6),83))| () Bool true)
(define-fun |required(ezcsp__eq(nWeight(6),ezcsp__pl(nWeight(5),24)))| () Bool false)
(define-fun |leafPos(7,4)| () Bool false)
(define-fun |required(ezcsp__leq(nWeight(4),ezcsp__mn(ezcsp__pl(46,98),46)))| () Bool true)
(define-fun |required(ezcsp__eq(nWeight(3),99))| () Bool false)
(define-fun |required(ezcsp__eq(nWeight(3),91))| () Bool false)
(define-fun |required(ezcsp__leq(nWeight(6),ezcsp__mn(ezcsp__pl(50,49),49)))| () Bool false)
(define-fun |required(ezcsp__leq(nWeight(3),ezcsp__mn(ezcsp__pl(12,4),4)))| () Bool false)
(define-fun 434 () Bool false)
(define-fun |leafPos(3,0)| () Bool false)
(define-fun |required(ezcsp__leq(nWeight(5),ezcsp__mn(ezcsp__pl(67,24),24)))| () Bool false)
(define-fun |leafCost(6,30)| () Bool true)
(define-fun |required(ezcsp__eq(nWeight(1),58))| () Bool false)
(define-fun |required(ezcsp__eq(nWeight(4),ezcsp__pl(nWeight(3),30)))| () Bool false)
(define-fun 430 () Bool false)
(define-fun |required(ezcsp__eq(nWeight(1),67))| () Bool false)
(define-fun |required(ezcsp__leq(nWeight(2),ezcsp__mn(ezcsp__pl(73,73),73)))| () Bool false)
(define-fun |posColor(2,red)| () Bool false)
(define-fun |required(ezcsp__eq(nWeight(6),ezcsp__pl(nWeight(5),46)))| () Bool false)
(define-fun |required(ezcsp__gt(nWeight(6),ezcsp__mn(ezcsp__pl(53,30),30)))| () Bool false)
(define-fun |location(5)| () Bool true)
(define-fun |required(ezcsp__leq(nWeight(1),ezcsp__mn(ezcsp__pl(12,4),4)))| () Bool false)
(define-fun |leafPos(1,0)| () Bool true)
(define-fun |cspvar(nWeight(4),0,486)| () Bool true)
(define-fun |required(ezcsp__eq(nWeight(3),ezcsp__pl(nWeight(2),30)))| () Bool false)
(define-fun |required(ezcsp__gt(nWeight(5),ezcsp__mn(ezcsp__pl(53,30),30)))| () Bool true)
(define-fun |location(2)| () Bool true)
(define-fun |required(ezcsp__leq(nWeight(4),ezcsp__mn(ezcsp__pl(73,73),73)))| () Bool false)
(define-fun |required(ezcsp__gt(nWeight(4),ezcsp__mn(ezcsp__pl(53,30),30)))| () Bool false)
(define-fun |required(ezcsp__gt(nWeight(5),ezcsp__mn(ezcsp__pl(33,62),33)))| () Bool false)
(define-fun |required(ezcsp__eq(nWeight(1),124))| () Bool false)
(define-fun |required(ezcsp__eq(nWeight(5),95))| () Bool false)
(define-fun |required(ezcsp__eq(nWeight(5),ezcsp__pl(nWeight(4),30)))| () Bool false)
(define-fun |required(ezcsp__eq(nWeight(6),ezcsp__pl(nWeight(5),30)))| () Bool false)
(define-fun |required(ezcsp__leq(nWeight(2),ezcsp__mn(ezcsp__pl(12,4),4)))| () Bool false)
(define-fun |required(ezcsp__eq(nWeight(1),106))| () Bool false)
(define-fun |required(ezcsp__eq(nWeight(5),ezcsp__pl(nWeight(4),46)))| () Bool true)
(define-fun |posColor(4,red)| () Bool false)
(define-fun |leafPos(5,1)| () Bool false)
(define-fun |required(ezcsp__eq(nWeight(1),123))| () Bool false)
(define-fun |leafPos(6,2)| () Bool false)
(define-fun |required(ezcsp__gt(nWeight(3),ezcsp__mn(ezcsp__pl(33,62),33)))| () Bool false)
(define-fun |required(ezcsp__leq(nWeight(5),ezcsp__mn(ezcsp__pl(73,73),73)))| () Bool false)
(define-fun |leafWeightCardinality(8,50,49)| () Bool true)
(define-fun |leafPos(8,1)| () Bool false)
(define-fun |required(ezcsp__eq(nWeight(2),ezcsp__pl(nWeight(1),73)))| () Bool false)
(define-fun |required(ezcsp__gt(nWeight(1),ezcsp__mn(ezcsp__pl(73,73),73)))| () Bool false)
(define-fun |leafPos(7,0)| () Bool false)
(define-fun |required(ezcsp__gt(nWeight(6),ezcsp__mn(ezcsp__pl(46,98),46)))| () Bool false)
(define-fun |leaf(2)| () Bool true)
(define-fun |leafPos(2,6)| () Bool false)
(define-fun |required(ezcsp__eq(nWeight(6),95))| () Bool false)
(define-fun 119 () Bool true)
(define-fun 118 () Bool true)
(define-fun |posColor(1,blue)| () Bool false)
(define-fun |leafPos(4,4)| () Bool true)
(define-fun 429 () Bool false)
(define-fun 428 () Bool false)
(define-fun |posColor(4,blue)| () Bool true)
(define-fun 427 () Bool false)
(define-fun 426 () Bool true)
(define-fun |required(ezcsp__eq(nWeight(6),ezcsp__pl(nWeight(5),33)))| () Bool false)
(define-fun |leafWeightCardinality(5,12,4)| () Bool true)
(define-fun |required(ezcsp__eq(nWeight(5),83))| () Bool false)
(define-fun |cspvar(nWeight(7),0,486)| () Bool true)
(define-fun |leafCost(5,4)| () Bool true)
(define-fun |required(ezcsp__leq(nWeight(1),ezcsp__mn(ezcsp__pl(73,73),73)))| () Bool false)
(define-fun |required(ezcsp__leq(nWeight(1),ezcsp__mn(ezcsp__pl(46,98),46)))| () Bool false)
(define-fun |required(ezcsp__eq(nWeight(1),80))| () Bool false)
(define-fun |posColor(6,blue)| () Bool false)
(define-fun |innerNode(6)| () Bool true)
(define-fun |coloredPos(5)| () Bool true)
(define-fun |leafWeightCardinality(3,33,62)| () Bool true)
(define-fun |leafPos(1,3)| () Bool false)
(define-fun |required(ezcsp__eq(nWeight(6),111))| () Bool false)
(define-fun |leafPos(3,4)| () Bool false)
(define-fun |required(ezcsp__gt(nWeight(1),ezcsp__mn(ezcsp__pl(67,24),24)))| () Bool false)
(define-fun |leafPos(1,4)| () Bool false)
(define-fun |label_order(nWeight(3),1)| () Bool true)
(define-fun |leafPos(8,5)| () Bool false)
(define-fun |max_total_weight(486)| () Bool true)
(define-fun |required(ezcsp__leq(nWeight(3),ezcsp__mn(ezcsp__pl(46,98),46)))| () Bool false)
(define-fun |required(ezcsp__eq(nWeight(4),144))| () Bool false)
(define-fun |required(ezcsp__eq(nWeight(5),99))| () Bool false)
(define-fun |required(ezcsp__eq(nWeight(1),103))| () Bool false)
(define-fun |coloredPos(6)| () Bool true)
(define-fun |required(ezcsp__leq(nWeight(4),ezcsp__mn(ezcsp__pl(12,4),4)))| () Bool false)
(define-fun |location(1)| () Bool true)
(define-fun |required(ezcsp__eq(nWeight(4),111))| () Bool false)
(define-fun |required(ezcsp__leq(nWeight(3),ezcsp__mn(ezcsp__pl(73,73),73)))| () Bool false)
(define-fun |required(ezcsp__eq(nWeight(7),95))| () Bool false)
(define-fun |required(ezcsp__eq(nWeight(1),122))| () Bool false)
(define-fun 151 () Bool true)
(define-fun |required(ezcsp__eq(nWeight(2),ezcsp__pl(nWeight(1),46)))| () Bool false)
(define-fun 152 () Bool true)
(define-fun |required(ezcsp__gt(nWeight(2),ezcsp__mn(ezcsp__pl(53,30),30)))| () Bool false)
(define-fun 157 () Bool true)
(define-fun 156 () Bool true)
(define-fun |required(ezcsp__eq(nWeight(4),ezcsp__pl(nWeight(3),33)))| () Bool false)
(define-fun |required(ezcsp__eq(nWeight(7),146))| () Bool false)
(define-fun |required(ezcsp__gt(nWeight(3),ezcsp__mn(ezcsp__pl(67,24),24)))| () Bool false)
(define-fun |required(ezcsp__eq(nWeight(7),ezcsp__pl(nWeight(6),46)))| () Bool false)
(define-fun |leafPos(5,4)| () Bool false)
(define-fun |required(ezcsp__gt(nWeight(6),ezcsp__mn(ezcsp__pl(33,62),33)))| () Bool false)
(define-fun |required(ezcsp__eq(nWeight(1),42))| () Bool false)
(define-fun |leafPos(6,7)| () Bool false)
(define-fun |required(ezcsp__eq(nWeight(6),ezcsp__pl(nWeight(5),17)))| () Bool false)
(define-fun |required(ezcsp__gt(nWeight(5),ezcsp__mn(ezcsp__pl(12,4),4)))| () Bool false)
(define-fun |leafPos(8,2)| () Bool false)
(define-fun |required(ezcsp__eq(nWeight(3),95))| () Bool false)
(define-fun |leafPos(4,0)| () Bool false)
(define-fun |coloredPos(1)| () Bool true)
(define-fun |required(ezcsp__leq(nWeight(4),ezcsp__mn(ezcsp__pl(94,17),17)))| () Bool false)
(define-fun |required(ezcsp__eq(nWeight(5),144))| () Bool false)
(define-fun |leafPos(2,3)| () Bool false)
(define-fun |required(ezcsp__eq(nWeight(7),ezcsp__pl(nWeight(6),24)))| () Bool false)
(define-fun |innerNode(2)| () Bool true)
(define-fun 489 () Bool false)
(define-fun 488 () Bool false)
(define-fun 487 () Bool false)
(define-fun 486 () Bool false)
(define-fun 485 () Bool false)
(define-fun 484 () Bool false)
(define-fun 483 () Bool false)
(define-fun 482 () Bool false)
(define-fun 481 () Bool false)
(define-fun 480 () Bool false)
(define-fun |required(ezcsp__leq(nWeight(5),ezcsp__mn(ezcsp__pl(12,4),4)))| () Bool false)
(define-fun |leafPos(7,7)| () Bool false)
(define-fun |leaf(6)| () Bool true)
(define-fun |required(ezcsp__eq(nWeight(6),ezcsp__pl(nWeight(5),73)))| () Bool false)
(define-fun |required(ezcsp__eq(nWeight(3),146))| () Bool false)
(define-fun |required(ezcsp__eq(nWeight(3),ezcsp__pl(nWeight(2),24)))| () Bool false)
(define-fun 472 () Bool false)
(define-fun 473 () Bool false)
(define-fun 470 () Bool false)
(define-fun 471 () Bool false)
(define-fun 476 () Bool false)
(define-fun 477 () Bool false)
(define-fun 474 () Bool false)
(define-fun 475 () Bool false)
(define-fun 478 () Bool false)
(define-fun 479 () Bool false)
(define-fun |required(ezcsp__gt(nWeight(6),ezcsp__mn(ezcsp__pl(73,73),73)))| () Bool false)
(define-fun |nWeight(3)| () Int 33)
(define-fun |nWeight(2)| () Int 16)
(define-fun |nWeight(5)| () Int 103)
(define-fun |nWeight(1)| () Int 95)
(define-fun |nWeight(6)| () Int 83)
(define-fun |nWeight(4)| () Int 57)
(define-fun |nWeight(7)| () Int 99)
)
